5 5
0 4 2 56 4 85 3 34 1 40
2 69 3 68 4 22 0 14 1 68
3 8 2 67 4 46 1 29 0 90
0 94 2 12 1 79 3 52 4 58
4 2 2 1 3 55 1 92 0 99
-1
0 1 3 5
0 2 5
0 2 3 5
0 2 3 5
0 1 3 4 5
-2
6 196 334
204 377
104 148 287
127 256 299
2 83 208 394

367 7
0 15 8 24 14
23 17 13 9 4
21 5 11 16 1
22 10 6 18 3
20 7 12 2 19
